; Filename: EPANETINPUTFILESFOR7NEWORKS/5_Balerma.inp
; WNTR: 1.4.0
; Created: 2026-06-05 21:28:48
[TITLE]
Balerma Network

[JUNCTIONS]
;ID                      Elevation       Demand Pattern                 
 179001                            60            5.55                            ;
 179                               60            5.55                            ;
 177                             58.9            5.55                            ;
 174                               60            5.55                            ;
 173                             59.3            5.55                            ;
 171001                            60            5.55                            ;
 171                               60            5.55                            ;
 172                               60            5.55                            ;
 170                               60            5.55                            ;
 165                             56.7            5.55                            ;
 166                             57.3            5.55                            ;
 168                             57.1            5.55                            ;
 169                             56.5            5.55                            ;
 163                             55.2            5.55                            ;
 164                             57.8            5.55                            ;
 162                             55.2            5.55                            ;
 161                               55            5.55                            ;
 106                               54            5.55                            ;
 124                             52.2            5.55                            ;
 125                             51.1            5.55                            ;
 125001                          49.4            5.55                            ;
 126                             49.3            5.55                            ;
 127                             56.5            5.55                            ;
 128                               55            5.55                            ;
 129                             52.3            5.55                            ;
 130                             50.2            5.55                            ;
 132                               55            5.55                            ;
 131001                            57            5.55                            ;
 131                             52.4            5.55                            ;
 133                             46.6            5.55                            ;
 134                             28.8            5.55                            ;
 135                               60            5.55                            ;
 136                             43.3            5.55                            ;
 137                               25            5.55                            ;
 138                             23.6            5.55                            ;
 139                             42.5            5.55                            ;
 141                               50            5.55                            ;
 143                             38.3            5.55                            ;
 144                             36.8            5.55                            ;
 145                               27            5.55                            ;
 142                               24            5.55                            ;
 140001                          55.5            5.55                            ;
 151                             56.5            5.55                            ;
 152                               55            5.55                            ;
 107                               50            5.55                            ;
 108                             46.2            5.55                            ;
 109                             48.6            5.55                            ;
 110                             47.6            5.55                            ;
 111                             47.1            5.55                            ;
 113                             47.9            5.55                            ;
 114                               46            5.55                            ;
 112                             45.6            5.55                            ;
 115                               50            5.55                            ;
 116                               50            5.55                            ;
 117                             47.5            5.55                            ;
 118                               45            5.55                            ;
 119                               46            5.55                            ;
 105                             55.8            5.55                            ;
 102                             54.5            5.55                            ;
 103                             51.5            5.55                            ;
 104                             52.4            5.55                            ;
 100                             53.1            5.55                            ;
 101                             51.2            5.55                            ;
 96                              52.8            5.55                            ;
 97                              51.4            5.55                            ;
 98                                46            5.55                            ;
 99                                45            5.55                            ;
 93                                50            5.55                            ;
 94                              51.7            5.55                            ;
 95                              51.4            5.55                            ;
 92                                40            5.55                            ;
 160                             32.9            5.55                            ;
 159001                            34            5.55                            ;
 159                             31.4            5.55                            ;
 156                             34.2            5.55                            ;
 157                               40            5.55                            ;
 158                               46            5.55                            ;
 155                               34            5.55                            ;
 154                             41.6            5.55                            ;
 153                               34            5.55                            ;
 55                                30            5.55                            ;
 59                                21            5.55                            ;
 60                                11            5.55                            ;
 61                                 5            5.55                            ;
 62                               3.5            5.55                            ;
 147                               33            5.55                            ;
 150                               45            5.55                            ;
 148                               29            5.55                            ;
 149                               19            5.55                            ;
 63                                 9            5.55                            ;
 64                               4.5            5.55                            ;
 65                               3.3            5.55                            ;
 66                               1.2            5.55                            ;
 67                              12.3            5.55                            ;
 68                               9.3            5.55                            ;
 69                              8.16            5.55                            ;
 70                               8.8            5.55                            ;
 71                               8.1            5.55                            ;
 72                               7.4            5.55                            ;
 56                              12.9            5.55                            ;
 57                               4.8            5.55                            ;
 58                                 3            5.55                            ;
 53                              14.5            5.55                            ;
 54                               4.1            5.55                            ;
 52                                31            5.55                            ;
 46001                             33            5.55                            ;
 50                                20            5.55                            ;
 51                               4.4            5.55                            ;
 47                              13.1            5.55                            ;
 48                               7.1            5.55                            ;
 49                               1.6            5.55                            ;
 42                                15            5.55                            ;
 45                               5.9            5.55                            ;
 46                               3.5            5.55                            ;
 41                                31            5.55                            ;
 35                                30            5.55                            ;
 36                                13            5.55                            ;
 39                                10            5.55                            ;
 40                               6.3            5.55                            ;
 37                                 6            5.55                            ;
 91                              42.5            5.55                            ;
 90                                45            5.55                            ;
 89                                47            5.55                            ;
 31                                20            5.55                            ;
 32                               7.1            5.55                            ;
 34                               4.4            5.55                            ;
 33                               4.6            5.55                            ;
 28001                           32.2            5.55                            ;
 28                              22.5            5.55                            ;
 29                               9.2            5.55                            ;
 30                              5.65            5.55                            ;
 27                              31.2            5.55                            ;
 26                              12.3            5.55                            ;
 23                               7.5            5.55                            ;
 22                               5.2            5.55                            ;
 87                              40.3            5.55                            ;
 86                              41.4            5.55                            ;
 83                              40.2            5.55                            ;
 77                                45            5.55                            ;
 81                              44.4            5.55                            ;
 78                              44.8            5.55                            ;
 79                              45.8            5.55                            ;
 80                              46.6            5.55                            ;
 82                              46.9            5.55                            ;
 84                                40            5.55                            ;
 85                                50            5.55                            ;
 121                               50            5.55                            ;
 122                             49.3            5.55                            ;
 123                             47.3            5.55                            ;
 120                             49.5            5.55                            ;
 75                                47            5.55                            ;
 76                              47.4            5.55                            ;
 73                              32.5            5.55                            ;
 74                                40            5.55                            ;
 227                             52.8            5.55                            ;
 215001                            75            5.55                            ;
 215                               60            5.55                            ;
 219                               50            5.55                            ;
 220                             52.3            5.55                            ;
 221                             51.7            5.55                            ;
 222                               52            5.55                            ;
 223                             50.8            5.55                            ;
 223001                          54.5            5.55                            ;
 224                             50.1            5.55                            ;
 225                             49.5            5.55                            ;
 226                             50.7            5.55                            ;
 214                               74            5.55                            ;
 216                             62.7            5.55                            ;
 217                               62            5.55                            ;
 218                            57.25            5.55                            ;
 201                               95            5.55                            ;
 203                             94.2            5.55                            ;
 204                             92.9            5.55                            ;
 205                             91.4            5.55                            ;
 211                             90.8            5.55                            ;
 212                               65            5.55                            ;
 206                             84.2            5.55                            ;
 207                             80.6            5.55                            ;
 208                             76.8            5.55                            ;
 209                               70            5.55                            ;
 210                               70            5.55                            ;
 213                             73.8            5.55                            ;
 200001                            95            5.55                            ;
 199                               94            5.55                            ;
 196                             92.7            5.55                            ;
 197                               90            5.55                            ;
 198                             89.6            5.55                            ;
 233                            87.17            5.55                            ;
 232                             84.2            5.55                            ;
 231                             80.5            5.55                            ;
 230                             72.5            5.55                            ;
 234                               65            5.55                            ;
 194                               95            5.55                            ;
 195                               95            5.55                            ;
 192                               95            5.55                            ;
 193                               85            5.55                            ;
 234001                            65            5.55                            ;
 235                             71.5            5.55                            ;
 236                               76            5.55                            ;
 237                               83            5.55                            ;
 238                             81.3            5.55                            ;
 240                               83            5.55                            ;
 239                             86.3            5.55                            ;
 190001                            95            5.55                            ;
 187                               95            5.55                            ;
 188                             94.2            5.55                            ;
 189                             90.5            5.55                            ;
 186                               95            5.55                            ;
 185                               95            5.55                            ;
 235001                          75.5            5.55                            ;
 241                             83.3            5.55                            ;
 242                             87.8            5.55                            ;
 243                             83.6            5.55                            ;
 244                             78.1            5.55                            ;
 245                             83.5            5.55                            ;
 183                             87.7            5.55                            ;
 184                             85.7            5.55                            ;
 182                               95            5.55                            ;
 249                             94.1            5.55                            ;
 248                               95            5.55                            ;
 247                             90.8            5.55                            ;
 246                               85            5.55                            ;
 181                               93            5.55                            ;
 266                             71.4            5.55                            ;
 180004                          84.2            5.55                            ;
 190                               95            5.55                            ;
 191                             91.8            5.55                            ;
 180003                            90            5.55                            ;
 180002                            95            5.55                            ;
 180001                          95.6            5.55                            ;
 180                               95            5.55                            ;
 287                             73.3            5.55                            ;
 286                               72            5.55                            ;
 285                               71            5.55                            ;
 284                               70            5.55                            ;
 200                             77.8            5.55                            ;
 274                             65.5            5.55                            ;
 275                               66            5.55                            ;
 276                               71            5.55                            ;
 265                               70            5.55                            ;
 268                               65            5.55                            ;
 269                               66            5.55                            ;
 271                             72.4            5.55                            ;
 270                             73.7            5.55                            ;
 318                               35            5.55                            ;
 317                               40            5.55                            ;
 316                               46            5.55                            ;
 315                               45            5.55                            ;
 313                               45            5.55                            ;
 314                               40            5.55                            ;
 312                             45.6            5.55                            ;
 310                             45.7            5.55                            ;
 311                             48.4            5.55                            ;
 309                               50            5.55                            ;
 297                               52            5.55                            ;
 298                               55            5.55                            ;
 299                               60            5.55                            ;
 296                             51.7            5.55                            ;
 294                             48.5            5.55                            ;
 293                             47.6            5.55                            ;
 291                               49            5.55                            ;
 295                             51.4            5.55                            ;
 288                               55            5.55                            ;
 289                               71            5.55                            ;
 290                               68            5.55                            ;
 282                             66.8            5.55                            ;
 277                               60            5.55                            ;
 278                             67.2            5.55                            ;
 279                             71.4            5.55                            ;
 280                             73.6            5.55                            ;
 281                               75            5.55                            ;
 272                             73.4            5.55                            ;
 273                               70            5.55                            ;
 264                             70.5            5.55                            ;
 257001                            71            5.55                            ;
 258001                          74.4            5.55                            ;
 259001                          71.6            5.55                            ;
 260001                          75.3            5.55                            ;
 261                             76.4            5.55                            ;
 262                               76            5.55                            ;
 263                             75.8            5.55                            ;
 255                             82.6            5.55                            ;
 258                             83.5            5.55                            ;
 259                             83.3            5.55                            ;
 260                             81.5            5.55                            ;
 256                               84            5.55                            ;
 257                               87            5.55                            ;
 254                             83.9            5.55                            ;
 250004                            85            5.55                            ;
 421                             98.1            5.55                            ;
 420                             99.8            5.55                            ;
 419                            101.1            5.55                            ;
 418                              103            5.55                            ;
 416                              103            5.55                            ;
 417                              104            5.55                            ;
 415                              103            5.55                            ;
 414                              102            5.55                            ;
 413                              100            5.55                            ;
 250001                           100            5.55                            ;
 21                               4.8            5.55                            ;
 319                             46.9            5.55                            ;
 320                             47.5            5.55                            ;
 20                                11            5.55                            ;
 19                               3.2            5.55                            ;
 18                                 8            5.55                            ;
 302                               50            5.55                            ;
 303                               50            5.55                            ;
 305                               51            5.55                            ;
 306                             54.8            5.55                            ;
 307                             54.8            5.55                            ;
 321                               50            5.55                            ;
 11                                 4            5.55                            ;
 322                             47.4            5.55                            ;
 323                               44            5.55                            ;
 301                             75.2            5.55                            ;
 300                               75            5.55                            ;
 324                             53.4            5.55                            ;
 368                               58            5.55                            ;
 367                             59.8            5.55                            ;
 369                             59.2            5.55                            ;
 325                               75            5.55                            ;
 365                             79.7            5.55                            ;
 362                               80            5.55                            ;
 360001                          80.5            5.55                            ;
 360                             80.6            5.55                            ;
 359                             80.7            5.55                            ;
 361                             79.5            5.55                            ;
 366                             79.4            5.55                            ;
 364                               80            5.55                            ;
 363                             80.5            5.55                            ;
 326                             75.7            5.55                            ;
 327                             76.5            5.55                            ;
 328                               77            5.55                            ;
 329                             77.7            5.55                            ;
 330                             75.3            5.55                            ;
 334                             80.2            5.55                            ;
 336                               80            5.55                            ;
 331                             75.7            5.55                            ;
 332                               75            5.55                            ;
 333                               80            5.55                            ;
 337                            84.36            5.55                            ;
 338                             81.1            5.55                            ;
 340                            83.54            5.55                            ;
 341                             83.6            5.55                            ;
 250                               83            5.55                            ;
 251                             82.5            5.55                            ;
 253                             78.8            5.55                            ;
 252                             78.8            5.55                            ;
 342                             82.8            5.55                            ;
 343                             82.2            5.55                            ;
 344                             80.2            5.55                            ;
 339                             81.6            5.55                            ;
 250003                            86            5.55                            ;
 250002                          88.6            5.55                            ;
 412                               90            5.55                            ;
 411                             89.7            5.55                            ;
 410                             89.7            5.55                            ;
 409                               87            5.55                            ;
 408                             86.7            5.55                            ;
 407001                            85            5.55                            ;
 407                             84.5            5.55                            ;
 345                             84.4            5.55                            ;
 346                             84.1            5.55                            ;
 347                             83.1            5.55                            ;
 348                             82.9            5.55                            ;
 349                            82.76            5.55                            ;
 350                             84.2            5.55                            ;
 350001                          83.7            5.55                            ;
 351                             83.6            5.55                            ;
 356                             82.3            5.55                            ;
 352                             82.1            5.55                            ;
 335                             80.4            5.55                            ;
 406                             84.4            5.55                            ;
 405                             84.3            5.55                            ;
 404                            83.74            5.55                            ;
 353                             81.8            5.55                            ;
 354                             81.5            5.55                            ;
 355                             81.1            5.55                            ;
 357                             82.1            5.55                            ;
 358                               82            5.55                            ;
 370                             59.5            5.55                            ;
 371                             59.2            5.55                            ;
 372                             57.2            5.55                            ;
 373                               68            5.55                            ;
 374                             69.5            5.55                            ;
 378                             56.6            5.55                            ;
 379                               53            5.55                            ;
 380                             50.5            5.55                            ;
 381                               45            5.55                            ;
 382                               45            5.55                            ;
 376                             56.2            5.55                            ;
 377                             52.7            5.55                            ;
 383                             52.7            5.55                            ;
 384                               56            5.55                            ;
 396001                          80.4            5.55                            ;
 397                             80.5            5.55                            ;
 398                             80.5            5.55                            ;
 400                             81.7            5.55                            ;
 401                             81.7            5.55                            ;
 402                             80.8            5.55                            ;
 403                             80.9            5.55                            ;
 10                               3.3            5.55                            ;
 9                                1.7            5.55                            ;
 8                                8.5            5.55                            ;
 2                               16.5            5.55                            ;
 1                               13.2            5.55                            ;
 3                               23.9            5.55                            ;
 385                             54.7            5.55                            ;
 17                                10            5.55                            ;
 16                               8.1            5.55                            ;
 15                               6.7            5.55                            ;
 13                              12.4            5.55                            ;
 12                                15            5.55                            ;
 14                             19.25            5.55                            ;
 6                               18.4            5.55                            ;
 5                               12.5            5.55                            ;
 601                               56               0                            ;
 387                             54.8            5.55                            ;
 388                             54.8            5.55                            ;
 389                             55.5            5.55                            ;
 390                             52.5            5.55                            ;
 391                               53            5.55                            ;
 392                               52            5.55                            ;
 393                               50            5.55                            ;
 394                             56.4            5.55                            ;
 395                             55.6            5.55                            ;
 396                             40.4            5.55                            ;
 4                               14.2            5.55                            ;
 7                                 10            5.55                            ;
 228                             49.8            5.55                            ;
 229                             49.6            5.55                            ;
 256001                            75            5.55                            ;
 399                             81.7            5.55                            ;
 24                                10            5.55                            ;
 24001                             10            5.55                            ;
 25                              14.5            5.55                            ;
 45001                             32            5.55                            ;
 71001                            8.1            5.55                            ;
 127001                            56            5.55                            ;
 202001                            70            5.55                            ;
 301001                            75            5.55                            ;
 304                             50.8            5.55                            ;
 422                              103            5.55                            ;

[RESERVOIRS]
;ID                                   Head                  Pattern
 38                               117                            ;
 43                               127                            ;
 44                               122                            ;
 88                               112                            ;

[TANKS]
;ID                              Elevation           Init Level            Min Level            Max Level             Diameter           Min Volume Volume Curve         Overflow            

[PIPES]
;ID                   Node1                Node2                              Length             Diameter            Roughness           Minor Loss               Status
 1                    126                  125001                            65             113          0.0025               0                 Open   ;
 2                    125001               125                              260             113          0.0025               0                 Open   ;
 3                    125                  124                              164             113          0.0025               0                 Open   ;
 4                    124                  106                              250             285          0.0025               0                 Open   ;
 8                    106                  161                              100           162.8          0.0025               0                 Open   ;
 10                   161                  162                               68           162.8          0.0025               0                 Open   ;
 11                   162                  163                              164           162.8          0.0025               0                 Open   ;
 12                   163                  164                              164             113          0.0025               0                 Open   ;
 13                   163                  165                               65           144.6          0.0025               0                 Open   ;
 15                   165                  166                               98             113          0.0025               0                 Open   ;
 16                   166                  168                              145             113          0.0025               0                 Open   ;
 17                   165                  170                               96           144.6          0.0025               0                 Open   ;
 18                   170                  171001                           181           126.6          0.0025               0                 Open   ;
 19                   171001               171                               92             113          0.0025               0                 Open   ;
 20                   171                  172                              100             113          0.0025               0                 Open   ;
 21                   171001               173                              177           126.6          0.0025               0                 Open   ;
 22                   173                  179                              159             113          0.0025               0                 Open   ;
 23                   173                  174                              155             113          0.0025               0                 Open   ;
 26                   179                  179001                           168             113          0.0025               0                 Open   ;
 27                   179                  177                              103             113          0.0025               0                 Open   ;
 28                   168                  169                              113             113          0.0025               0                 Open   ;
 30                   124                  127                              850             285          0.0025               0                 Open   ;
 32                   128                  129                              149             113          0.0025               0                 Open   ;
 33                   129                  130                              175             113          0.0025               0                 Open   ;
 34                   127001               131001                           500             285          0.0025               0                 Open   ;
 35                   131                  132                              134             113          0.0025               0                 Open   ;
 40                   131001               131                              164             113          0.0025               0                 Open   ;
 41                   131                  133                              137             113          0.0025               0                 Open   ;
 42                   133                  134                              223             113          0.0025               0                 Open   ;
 43                   131001               135                              394             285          0.0025               0                 Open   ;
 44                   135                  136                              191             113          0.0025               0                 Open   ;
 46                   136                  137                              440             113          0.0025               0                 Open   ;
 47                   136                  138                              459             113          0.0025               0                 Open   ;
 50                   136                  139                              184             113          0.0025               0                 Open   ;
 56                   141                  143                              300             113          0.0025               0                 Open   ;
 57                   143                  144                              116             113          0.0025               0                 Open   ;
 58                   144                  145                              198             113          0.0025               0                 Open   ;
 59                   141                  142                              510             113          0.0025               0                 Open   ;
 61                   141                  140001                           127           144.6          0.0025               0                 Open   ;
 62                   140001               151                              189           144.6          0.0025               0                 Open   ;
 63                   151                  152                               95             113          0.0025               0                 Open   ;
 65                   124                  107                              250             113          0.0025               0                 Open   ;
 67                   107                  108                              375             113          0.0025               0                 Open   ;
 68                   108                  109                              100             113          0.0025               0                 Open   ;
 69                   109                  110                              231             113          0.0025               0                 Open   ;
 70                   110                  111                               61             113          0.0025               0                 Open   ;
 71                   110                  112                              282             113          0.0025               0                 Open   ;
 73                   112                  113                               88             113          0.0025               0                 Open   ;
 74                   113                  114                              134             113          0.0025               0                 Open   ;
 77                   115                  116                               40             113          0.0025               0                 Open   ;
 78                   116                  117                              189             113          0.0025               0                 Open   ;
 81                   119                  118                              225             113          0.0025               0                 Open   ;
 82                   117                  119                              201             113          0.0025               0                 Open   ;
 38                   106                  105                               66           126.6          0.0025               0                 Open   ;
 39                   105                  102                               78           126.6          0.0025               0                 Open   ;
 49                   102                  100                              197           126.6          0.0025               0                 Open   ;
 52                   100                  101                              197             113          0.0025               0                 Open   ;
 53                   102                  103                              177             113          0.0025               0                 Open   ;
 83                   103                  104                               85             113          0.0025               0                 Open   ;
 84                   100                  96                               222             113          0.0025               0                 Open   ;
 86                   96                   97                               288             113          0.0025               0                 Open   ;
 87                   97                   98                               130             113          0.0025               0                 Open   ;
 88                   98                   99                               127             113          0.0025               0                 Open   ;
 89                   96                   93                                96             113          0.0025               0                 Open   ;
 91                   93                   94                               110             113          0.0025               0                 Open   ;
 92                   94                   95                               205             113          0.0025               0                 Open   ;
 94                   93                   92                               176             113          0.0025               0                 Open   ;
 95                   92                   91                               300             113          0.0025               0                 Open   ;
 96                   91                   160                              500             113          0.0025               0                 Open   ;
 97                   160                  159001                           119             113          0.0025               0                 Open   ;
 98                   159001               159                              228             113          0.0025               0                 Open   ;
 99                   159                  156                              295             113          0.0025               0                 Open   ;
 101                  156                  157                              191             113          0.0025               0                 Open   ;
 102                  157                  158                              129             113          0.0025               0                 Open   ;
 103                  156                  155                              152             113          0.0025               0                 Open   ;
 104                  155                  154                              115             113          0.0025               0                 Open   ;
 105                  155                  153                              444             113          0.0025               0                 Open   ;
 108                  55                   59                               580             113          0.0025               0                 Open   ;
 110                  59                   60                               350             113          0.0025               0                 Open   ;
 112                  60                   61                               209             113          0.0025               0                 Open   ;
 113                  60                   62                               212             113          0.0025               0                 Open   ;
 114                  141                  147                              455           162.8          0.0025               0                 Open   ;
 115                  147                  148                              250           144.6          0.0025               0                 Open   ;
 116                  148                  150                              168           144.6          0.0025               0                 Open   ;
 118                  148                  149                              145             113          0.0025               0                 Open   ;
 121                  63                   64                               172             113          0.0025               0                 Open   ;
 122                  64                   65                               110             113          0.0025               0                 Open   ;
 123                  65                   66                               250             113          0.0025               0                 Open   ;
 125                  67                   68                               148             113          0.0025               0                 Open   ;
 126                  68                   69                               123             113          0.0025               0                 Open   ;
 127                  68                   70                               139             113          0.0025               0                 Open   ;
 128                  70                   71                               210           126.6          0.0025               0                 Open   ;
 132                  55                   56                               159             113          0.0025               0                 Open   ;
 133                  56                   57                               144             113          0.0025               0                 Open   ;
 134                  57                   58                               148             113          0.0025               0                 Open   ;
 136                  52                   53                               161             113          0.0025               0                 Open   ;
 137                  53                   54                               267             113          0.0025               0                 Open   ;
 138                  55                   52                               320           162.8          0.0025               0                 Open   ;
 139                  52                   46001                            444           162.8          0.0025               0                 Open   ;
 140                  46001                50                               184             113          0.0025               0                 Open   ;
 141                  50                   51                               322             113          0.0025               0                 Open   ;
 142                  46001                47                               228             113          0.0025               0                 Open   ;
 143                  47                   48                               129             113          0.0025               0                 Open   ;
 144                  48                   49                               254             113          0.0025               0                 Open   ;
 146                  41                   42                               224             113          0.0025               0                 Open   ;
 147                  42                   45                               202             113          0.0025               0                 Open   ;
 148                  45                   46                               162             113          0.0025               0                 Open   ;
 149                  45001                41                               435           180.8          0.0025               0                 Open   ;
 150                  41                   35                               488           226.2          0.0025               0                 Open   ;
 151                  35                   36                               179             113          0.0025               0                 Open   ;
 152                  36                   39                               137             113          0.0025               0                 Open   ;
 153                  39                   40                               160             113          0.0025               0                 Open   ;
 154                  36                   37                               168             113          0.0025               0                 Open   ;
 155                  35                   31                               350           226.2          0.0025               0                 Open   ;
 157                  31                   32                               246             113          0.0025               0                 Open   ;
 159                  32                   33                               100             113          0.0025               0                 Open   ;
 164                  91                   90                               750             113          0.0025               0                 Open   ;
 167                  90                   89                               250             285          0.0025               0                 Open   ;
 169                  31                   28                               250           226.2          0.0025               0                 Open   ;
 170                  28001                28                               200           226.2          0.0025               0                 Open   ;
 171                  28                   29                               273             113          0.0025               0                 Open   ;
 172                  29                   30                               205             113          0.0025               0                 Open   ;
 173                  90                   28001                            200           226.2          0.0025               0                 Open   ;
 174                  28001                27                               312             113          0.0025               0                 Open   ;
 175                  27                   26                               308             113          0.0025               0                 Open   ;
 176                  26                   23                                40             113          0.0025               0                 Open   ;
 90                   83                   77                               346             285          0.0025               0                 Open   ;
 107                  77                   81                               334             113          0.0025               0                 Open   ;
 191                  81                   78                                73             113          0.0025               0                 Open   ;
 192                  78                   79                               114             113          0.0025               0                 Open   ;
 193                  79                   80                                93             113          0.0025               0                 Open   ;
 198                  84                   85                               161             113          0.0025               0                 Open   ;
 199                  115                  120                              221             113          0.0025               0                 Open   ;
 200                  120                  121                              150             113          0.0025               0                 Open   ;
 201                  121                  122                              254             113          0.0025               0                 Open   ;
 202                  122                  123                              160             113          0.0025               0                 Open   ;
 204                  77                   75                               400             285          0.0025               0                 Open   ;
 208                  77                   76                                66             113          0.0025               0                 Open   ;
 212                  73                   74                               127             113          0.0025               0                 Open   ;
 220                  219                  220                              105             113          0.0025               0                 Open   ;
 224                  220                  221                              187             113          0.0025               0                 Open   ;
 226                  221                  222                               86             113          0.0025               0                 Open   ;
 227                  222                  223                              126             113          0.0025               0                 Open   ;
 228                  221                  223001                           250             113          0.0025               0                 Open   ;
 229                  223001               224                              116             113          0.0025               0                 Open   ;
 230                  224                  225                              269             113          0.0025               0                 Open   ;
 231                  225                  226                               42             113          0.0025               0                 Open   ;
 244                  215                  214                              329             113          0.0025               0                 Open   ;
 245                  214                  216                              145             113          0.0025               0                 Open   ;
 246                  216                  217                               56             113          0.0025               0                 Open   ;
 247                  216                  218                              171             113          0.0025               0                 Open   ;
 249                  214                  203                              236             113          0.0025               0                 Open   ;
 251                  215001               202001                           264           361.8          0.0025               0                 Open   ;
 254                  203                  204                              108           144.6          0.0025               0                 Open   ;
 255                  204                  205                              125           126.6          0.0025               0                 Open   ;
 256                  204                  211                              190             113          0.0025               0                 Open   ;
 257                  211                  212                              269             113          0.0025               0                 Open   ;
 258                  205                  206                              227           126.6          0.0025               0                 Open   ;
 259                  206                  207                              110           126.6          0.0025               0                 Open   ;
 260                  207                  208                              110             113          0.0025               0                 Open   ;
 261                  208                  213                              140             113          0.0025               0                 Open   ;
 262                  208                  209                              284             113          0.0025               0                 Open   ;
 263                  209                  210                              298             113          0.0025               0                 Open   ;
 265                  203                  201                              200           226.2          0.0025               0                 Open   ;
 268                  201                  200001                           150           226.2          0.0025               0                 Open   ;
 269                  200001               199                              193             285          0.0025               0                 Open   ;
 271                  234                  230                               73           144.6          0.0025               0                 Open   ;
 272                  230                  231                              156           126.6          0.0025               0                 Open   ;
 273                  231                  232                              132             113          0.0025               0                 Open   ;
 274                  232                  233                              106             113          0.0025               0                 Open   ;
 275                  199                  196                              160             113          0.0025               0                 Open   ;
 276                  196                  197                              225             113          0.0025               0                 Open   ;
 277                  197                  198                               93             113          0.0025               0                 Open   ;
 278                  199                  192                              325             285          0.0025               0                 Open   ;
 279                  192                  194                              106             113          0.0025               0                 Open   ;
 280                  194                  195                              194             113          0.0025               0                 Open   ;
 282                  192                  193                              103             113          0.0025               0                 Open   ;
 284                  234                  234001                           149           144.6          0.0025               0                 Open   ;
 288                  236                  237                              138             113          0.0025               0                 Open   ;
 289                  237                  238                              146             113          0.0025               0                 Open   ;
 291                  238                  239                              147           162.8          0.0025               0                 Open   ;
 207                  192                  190001                           398             285          0.0025               0                 Open   ;
 292                  190001               190                              131             285          0.0025               0                 Open   ;
 294                  187                  186                               38             113          0.0025               0                 Open   ;
 295                  186                  185                               78             113          0.0025               0                 Open   ;
 296                  187                  188                              287           180.8          0.0025               0                 Open   ;
 297                  188                  189                              253           180.8          0.0025               0                 Open   ;
 299                  235001               241                              215             113          0.0025               0                 Open   ;
 300                  241                  242                              170             113          0.0025               0                 Open   ;
 301                  241                  243                              135             113          0.0025               0                 Open   ;
 302                  243                  244                              145           126.6          0.0025               0                 Open   ;
 304                  244                  245                              254           126.6          0.0025               0                 Open   ;
 306                  182                  183                              103             113          0.0025               0                 Open   ;
 307                  183                  184                               85             113          0.0025               0                 Open   ;
 308                  187                  182                              600           361.8          0.0025               0                 Open   ;
 311                  182                  249                              300           361.8          0.0025               0                 Open   ;
 312                  249                  248                              100           162.8          0.0025               0                 Open   ;
 313                  248                  247                              306           144.6          0.0025               0                 Open   ;
 315                  247                  246                              256           144.6          0.0025               0                 Open   ;
 316                  246                  245                              239           126.6          0.0025               0                 Open   ;
 317                  180001               249                              450           361.8          0.0025               0                 Open   ;
 318                  180001               181                              130             113          0.0025               0                 Open   ;
 322                  187                  190                              268             285          0.0025               0                 Open   ;
 323                  190                  191                               70             113          0.0025               0                 Open   ;
 324                  180004               180003                           471             113          0.0025               0                 Open   ;
 325                  180002               180003                           176             113          0.0025               0                 Open   ;
 328                  180                  180001                           190           361.8          0.0025               0                 Open   ;
 332                  199                  200                              158             113          0.0025               0                 Open   ;
 333                  202001               284                              206             113          0.0025               0                 Open   ;
 334                  287                  286                               83             113          0.0025               0                 Open   ;
 335                  286                  285                              165             113          0.0025               0                 Open   ;
 336                  285                  284                               69             113          0.0025               0                 Open   ;
 338                  202001               38                               200           452.2          0.0025               0                 Open   ;
 342                  274                  275                               90             113          0.0025               0                 Open   ;
 343                  275                  276                              137             113          0.0025               0                 Open   ;
 346                  268                  269                               58             113          0.0025               0                 Open   ;
 348                  271                  270                              107             113          0.0025               0                 Open   ;
 350                  318                  317                              118             113          0.0025               0                 Open   ;
 351                  317                  316                              177             113          0.0025               0                 Open   ;
 352                  316                  315                              153             113          0.0025               0                 Open   ;
 353                  315                  313                              133           126.6          0.0025               0                 Open   ;
 354                  313                  314                              170             113          0.0025               0                 Open   ;
 355                  313                  312                              210           126.6          0.0025               0                 Open   ;
 356                  312                  310                              165           126.6          0.0025               0                 Open   ;
 357                  310                  311                              115             113          0.0025               0                 Open   ;
 358                  310                  309                              163           144.6          0.0025               0                 Open   ;
 359                  309                  297                              100           144.6          0.0025               0                 Open   ;
 361                  297                  298                              110             113          0.0025               0                 Open   ;
 362                  298                  299                              182             113          0.0025               0                 Open   ;
 363                  297                  296                               93           162.8          0.0025               0                 Open   ;
 364                  296                  294                              151           162.8          0.0025               0                 Open   ;
 365                  294                  293                               85           180.8          0.0025               0                 Open   ;
 366                  293                  229                              300             285          0.0025               0                 Open   ;
 367                  293                  291                              250           180.8          0.0025               0                 Open   ;
 369                  296                  295                              132             113          0.0025               0                 Open   ;
 373                  288                  289                              211             113          0.0025               0                 Open   ;
 374                  289                  290                               69             113          0.0025               0                 Open   ;
 375                  288                  282                              400           162.8          0.0025               0                 Open   ;
 376                  282                  277                              259           162.8          0.0025               0                 Open   ;
 379                  277                  278                              155           144.6          0.0025               0                 Open   ;
 380                  278                  279                              187           126.6          0.0025               0                 Open   ;
 381                  279                  280                              222             113          0.0025               0                 Open   ;
 382                  280                  281                               82             113          0.0025               0                 Open   ;
 385                  271                  272                              220             113          0.0025               0                 Open   ;
 386                  271                  273                              300             113          0.0025               0                 Open   ;
 394                  268                  260001                           270           144.6          0.0025               0                 Open   ;
 397                  262                  261                               78             113          0.0025               0                 Open   ;
 401                  262                  263                               90             113          0.0025               0                 Open   ;
 404                  255                  258                              123             113          0.0025               0                 Open   ;
 405                  258                  259                               86             113          0.0025               0                 Open   ;
 406                  259                  260                               81             113          0.0025               0                 Open   ;
 407                  255                  256                               51             113          0.0025               0                 Open   ;
 408                  256                  257                              212             113          0.0025               0                 Open   ;
 409                  255                  254                              400           144.6          0.0025               0                 Open   ;
 414                  421                  180002                           218             113          0.0025               0                 Open   ;
 415                  420                  421                              109             113          0.0025               0                 Open   ;
 416                  419                  420                               55             113          0.0025               0                 Open   ;
 417                  418                  419                              214           126.6          0.0025               0                 Open   ;
 418                  416                  418                              145           144.6          0.0025               0                 Open   ;
 419                  417                  416                              329           361.8          0.0025               0                 Open   ;
 421                  416                  415                              372           361.8          0.0025               0                 Open   ;
 422                  415                  250001                           368           361.8          0.0025               0                 Open   ;
 423                  415                  414                               96             113          0.0025               0                 Open   ;
 424                  414                  413                               79             113          0.0025               0                 Open   ;
 428                  22                   21                               181             113          0.0025               0                 Open   ;
 429                  21                   19                               320             113          0.0025               0                 Open   ;
 430                  19                   18                               236             113          0.0025               0                 Open   ;
 434                  319                  320                               63             113          0.0025               0                 Open   ;
 435                  21                   20                               164             113          0.0025               0                 Open   ;
 438                  297                  302                              280             113          0.0025               0                 Open   ;
 439                  302                  303                              103             113          0.0025               0                 Open   ;
 441                  305                  306                              150             113          0.0025               0                 Open   ;
 442                  306                  307                               46             113          0.0025               0                 Open   ;
 443                  320                  321                              314             113          0.0025               0                 Open   ;
 446                  322                  323                              264             113          0.0025               0                 Open   ;
 450                  301                  300                              229             113          0.0025               0                 Open   ;
 457                  324                  368                              265             113          0.0025               0                 Open   ;
 458                  368                  367                               51             113          0.0025               0                 Open   ;
 459                  367                  369                               87             113          0.0025               0                 Open   ;
 460                  365                  325                              363           226.2          0.0025               0                 Open   ;
 464                  365                  362                              163           144.6          0.0025               0                 Open   ;
 465                  362                  361                              136           126.6          0.0025               0                 Open   ;
 467                  361                  360001                           200           126.6          0.0025               0                 Open   ;
 468                  360001               360                               59             113          0.0025               0                 Open   ;
 469                  360                  359                               59             113          0.0025               0                 Open   ;
 471                  366                  364                               81             113          0.0025               0                 Open   ;
 472                  364                  363                              142             113          0.0025               0                 Open   ;
 473                  325                  327                              248             113          0.0025               0                 Open   ;
 474                  327                  326                              110             113          0.0025               0                 Open   ;
 476                  327                  328                               66             113          0.0025               0                 Open   ;
 477                  328                  329                               99             113          0.0025               0                 Open   ;
 479                  330                  334                              415           226.2          0.0025               0                 Open   ;
 480                  324                  331                             1450             113          0.0025               0                 Open   ;
 481                  331                  333                              350             113          0.0025               0                 Open   ;
 482                  333                  336                              400           144.6          0.0025               0                 Open   ;
 485                  331                  332                               68             113          0.0025               0                 Open   ;
 486                  254                  250                              459           226.2          0.0025               0                 Open   ;
 487                  250                  341                              310           180.8          0.0025               0                 Open   ;
 489                  341                  340                              169           162.8          0.0025               0                 Open   ;
 490                  340                  338                              176           162.8          0.0025               0                 Open   ;
 492                  338                  337                              392           162.8          0.0025               0                 Open   ;
 496                  338                  339                              246             113          0.0025               0                 Open   ;
 497                  341                  342                               87             113          0.0025               0                 Open   ;
 498                  342                  343                               64             113          0.0025               0                 Open   ;
 499                  343                  344                              233             113          0.0025               0                 Open   ;
 500                  250                  251                               90             113          0.0025               0                 Open   ;
 501                  251                  252                              174             113          0.0025               0                 Open   ;
 503                  252                  253                               51             113          0.0025               0                 Open   ;
 506                  250002               250003                           108             285          0.0025               0                 Open   ;
 508                  412                  411                              190           361.8          0.0025               0                 Open   ;
 509                  411                  410                              293             285          0.0025               0                 Open   ;
 510                  410                  409                              168           361.8          0.0025               0                 Open   ;
 511                  409                  408                              317             285          0.0025               0                 Open   ;
 512                  408                  407001                           342             285          0.0025               0                 Open   ;
 513                  407001               406                              415           162.8          0.0025               0                 Open   ;
 514                  407001               350                              142             285          0.0025               0                 Open   ;
 515                  407                  350                              183             113          0.0025               0                 Open   ;
 517                  350                  350001                           131             113          0.0025               0                 Open   ;
 519                  350001               351                               75             113          0.0025               0                 Open   ;
 520                  350001               352                              362             113          0.0025               0                 Open   ;
 521                  350001               356                              392             113          0.0025               0                 Open   ;
 522                  350                  345                              236             285          0.0025               0                 Open   ;
 523                  345                  346                              168             113          0.0025               0                 Open   ;
 524                  346                  347                              263             113          0.0025               0                 Open   ;
 525                  347                  348                               84             113          0.0025               0                 Open   ;
 526                  348                  349                               50             113          0.0025               0                 Open   ;
 530                  334                  335                              182             113          0.0025               0                 Open   ;
 532                  406                  405                              158           162.8          0.0025               0                 Open   ;
 535                  352                  353                              102             113          0.0025               0                 Open   ;
 536                  353                  354                               69             113          0.0025               0                 Open   ;
 537                  354                  355                              121             113          0.0025               0                 Open   ;
 538                  356                  357                               81             113          0.0025               0                 Open   ;
 539                  357                  358                               96             113          0.0025               0                 Open   ;
 540                  368                  370                               87             113          0.0025               0                 Open   ;
 542                  371                  372                              195             113          0.0025               0                 Open   ;
 543                  372                  373                              209           126.6          0.0025               0                 Open   ;
 544                  373                  374                               67             113          0.0025               0                 Open   ;
 545                  372                  378                               55             113          0.0025               0                 Open   ;
 546                  378                  379                              167             113          0.0025               0                 Open   ;
 547                  379                  380                               81             113          0.0025               0                 Open   ;
 548                  380                  381                              225             113          0.0025               0                 Open   ;
 549                  381                  382                               44             113          0.0025               0                 Open   ;
 550                  372                  376                               90           226.2          0.0025               0                 Open   ;
 552                  376                  384                              286           226.2          0.0025               0                 Open   ;
 554                  384                  383                              146             113          0.0025               0                 Open   ;
 555                  378                  377                              170             113          0.0025               0                 Open   ;
 557                  396001               397                              222             113          0.0025               0                 Open   ;
 558                  397                  398                               31             113          0.0025               0                 Open   ;
 563                  400                  401                               69             113          0.0025               0                 Open   ;
 564                  401                  402                              297             113          0.0025               0                 Open   ;
 565                  402                  403                               83             113          0.0025               0                 Open   ;
 567                  18                   11                                77             113          0.0025               0                 Open   ;
 568                  11                   10                               130             113          0.0025               0                 Open   ;
 571                  9                    8                                257             113          0.0025               0                 Open   ;
 575                  18                   15                               720             113          0.0025               0                 Open   ;
 576                  15                   13                               351             113          0.0025               0                 Open   ;
 578                  12                   14                               188           126.6          0.0025               0                 Open   ;
 579                  14                   6                                159           126.6          0.0025               0                 Open   ;
 580                  6                    5                                189           126.6          0.0025               0                 Open   ;
 581                  5                    8                                 83             113          0.0025               0                 Open   ;
 588                  13                   12                               200           144.6          0.0025               0                 Open   ;
 589                  15                   16                                94             113          0.0025               0                 Open   ;
 590                  15                   17                               128             113          0.0025               0                 Open   ;
 605                  601                  384                               67           226.2          0.0025               0                 Open   ;
 606                  601                  385                              170           226.2          0.0025               0                 Open   ;
 607                  385                  387                              176           126.6          0.0025               0                 Open   ;
 608                  387                  388                              105           126.6          0.0025               0                 Open   ;
 609                  388                  389                              136             113          0.0025               0                 Open   ;
 610                  389                  390                              128             113          0.0025               0                 Open   ;
 611                  390                  391                               40           126.6          0.0025               0                 Open   ;
 612                  391                  392                               65           126.6          0.0025               0                 Open   ;
 613                  392                  393                               83             113          0.0025               0                 Open   ;
 614                  393                  394                              257             113          0.0025               0                 Open   ;
 615                  394                  395                               85             113          0.0025               0                 Open   ;
 616                  395                  396                              151             113          0.0025               0                 Open   ;
 617                  4                    2                                326             113          0.0025               0                 Open   ;
 618                  2                    3                                135             113          0.0025               0                 Open   ;
 620                  2                    1                                222             113          0.0025               0                 Open   ;
 593                  250                  250003                           225             285          0.0025               0                 Open   ;
 600                  4                    8                                101             113          0.0025               0                 Open   ;
 601                  8                    7                                101             113          0.0025               0                 Open   ;
 160                  32                   34                               149             113          0.0025               0                 Open   ;
 161                  235                  235001                           218             113          0.0025               0                 Open   ;
 24                   106                  82                               569           361.8          0.0025               0                 Open   ;
 298                  180004               266                              816             113          0.0025               0                 Open   ;
 331                  258001               259001                           320             113          0.0025               0                 Open   ;
 390                  82                   228                               74             113          0.0025               0                 Open   ;
 392                  227                  229                              150           361.8          0.0025               0                 Open   ;
 393                  227                  215001                           317           361.8          0.0025               0                 Open   ;
 400                  319                  315                              262             113          0.0025               0                 Open   ;
 119                  59                   63                               314             113          0.0025               0                 Open   ;
 120                  63                   67                               419             113          0.0025               0                 Open   ;
 124                  260001               262                              345             113          0.0025               0                 Open   ;
 177                  23                   22                               671             113          0.0025               0                 Open   ;
 75                   115                  108                              421             113          0.0025               0                 Open   ;
 181                  213                  234                              700             113          0.0025               0                 Open   ;
 184                  288                  291                              603           180.8          0.0025               0                 Open   ;
 187                  319                  322                              477             113          0.0025               0                 Open   ;
 196                  325                  330                              380           226.2          0.0025               0                 Open   ;
 213                  336                  337                              206           144.6          0.0025               0                 Open   ;
 214                  334                  345                              616           226.2          0.0025               0                 Open   ;
 131                  152                  153                              347             113          0.0025               0                 Open   ;
 234                  256001               258001                           249           180.8          0.0025               0                 Open   ;
 235                  258001               257001                           184           180.8          0.0025               0                 Open   ;
 236                  257001               264                              141           162.8          0.0025               0                 Open   ;
 237                  264                  260001                            75           162.8          0.0025               0                 Open   ;
 238                  265                  268                              227             113          0.0025               0                 Open   ;
 239                  268                  274                              397             113          0.0025               0                 Open   ;
 240                  274                  277                              162             113          0.0025               0                 Open   ;
 266                  405                  404                              177           144.6          0.0025               0                 Open   ;
 329                  400                  399                               70             113          0.0025               0                 Open   ;
 330                  404                  399                              350           162.8          0.0025               0                 Open   ;
 337                  399                  396001                           350             113          0.0025               0                 Open   ;
 179                  220                  215001                           820             113          0.0025               0                 Open   ;
 219                  75                   73                               175             113          0.0025               0                 Open   ;
 222                  83                   84                               169             113          0.0025               0                 Open   ;
 243                  83                   86                               135             285          0.0025               0                 Open   ;
 267                  86                   87                               213             285          0.0025               0                 Open   ;
 344                  89                   87                               474             285          0.0025               0                 Open   ;
 345                  229                  75                               280             285          0.0025               0                 Open   ;
 349                  202001               82                              1800           361.8          0.0025               0                 Open   ;
 165                  250001               412                              611           361.8          0.0025               0                 Open   ;
 194                  43                   417                              354           452.2          0.0025               0                 Open   ;
 64                   269                  271                              209             113          0.0025               0                 Open   ;
 106                  234001               235                              500             113          0.0025               0                 Open   ;
 183                  234001               238                              400           144.6          0.0025               0                 Open   ;
 206                  238                  240                               44             113          0.0025               0                 Open   ;
 216                  239                  189                              300           162.8          0.0025               0                 Open   ;
 188                  250002               44                               800             285          0.0025               0                 Open   ;
 223                  43                   422                              345           361.8          0.0025               0                 Open   ;
 290                  250004               413                              750             113          0.0025               0                 Open   ;
 168                  23                   24                             103.6             113          0.0025               0                 Open   ;
 182                  24                   24001                            219             113          0.0025               0                 Open   ;
 186                  24001                25                               214             113          0.0025               0                 Open   ;
 197                  46001                45001                             80           226.2          0.0025               0                 Open   ;
 321                  71                   71001                             23             113          0.0025               0                 Open   ;
 368                  71001                72                               121             113          0.0025               0                 Open   ;
 370                  127                  127001                           100             285          0.0025               0                 Open   ;
 383                  127001               128                              102             113          0.0025               0                 Open   ;
 145                  301001               366                               52             113          0.0025               0                 Open   ;
 185                  365                  301001                           116           126.6          0.0025               0                 Open   ;
 398                  301001               301                               79             113          0.0025               0                 Open   ;
 399                  303                  304                               82             113          0.0025               0                 Open   ;
 402                  304                  305                              157             113          0.0025               0                 Open   ;
 433                  422                  180                              381           361.8          0.0025               0                 Open   ;
 190                  322                  324                              363             113          0.0025               0                 Open   ;
 51                   385                  88                              2500             285          0.0025               0                 Open   ;
 166                  13                   385                              752           144.6          0.0025               0                 Open   ;
 209                  123                  82                               100             113          0.0025               0                 Open   ;
 218                  135                  141                              177           226.2          0.0025               0                 Open   ;
 221                  150                  71                               500             113          0.0025               0                 Open   ;
 232                  370                  371                              100             113          0.0025               0                 Open   ;
 248                  256001               254                              500           180.8          0.0025               0                 Open   ;
 5                    266                  38                               200             113          0.0025               0                 Open   ;

[PUMPS]
;ID                   Node1                Node2                Properties          

[VALVES]
;ID                   Node1                Node2                            Diameter Type              Setting           Minor Loss

[TAGS]
;type      name       tag       

[DEMANDS]
;ID        Demand     Pattern   

[STATUS]
;ID        Setting   

[PATTERNS]
;ID        Multipliers

[CURVES]
;ID         X-Value      Y-Value     

[CONTROLS]

[RULES]

[ENERGY]
GLOBAL EFFICIENCY      75.0000
GLOBAL PRICE           0.0000
DEMAND CHARGE          0.0000

[EMITTERS]
;ID        Flow coefficient

[QUALITY]

[SOURCES]
;Node      Type       Quality    Pattern   

[REACTIONS]
;Type           Pipe/Tank               Coefficient

 ORDER BULK 1
 ORDER TANK 1
 ORDER WALL 1
 GLOBAL BULK 0.0000    
 GLOBAL WALL 0.0000    

[MIXING]
;Tank ID             Model Fraction

[TIMES]
DURATION             00:00:00
HYDRAULIC TIMESTEP   01:00:00
QUALITY TIMESTEP     00:06:00
PATTERN TIMESTEP     01:00:00
PATTERN START        00:00:00
REPORT TIMESTEP      01:00:00
REPORT START         00:00:00
START CLOCKTIME      00:00:00 AM
RULE TIMESTEP        00:06:00
STATISTIC            NONE      

[REPORT]
SUMMARY    NO
PAGE       0
DEMAND     PRECISION  2.0
HEAD       PRECISION  2.0
PRESSURE   PRECISION  2.0
FLOW       PRECISION  2.0
VELOCITY   PRECISION  2.0
HEADLOSS   PRECISION  2.0

[OPTIONS]
UNITS                LPS                 
HEADLOSS             D-W                 
SPECIFIC GRAVITY     1
VISCOSITY            1
TRIALS               40
ACCURACY             0.001
CHECKFREQ            2
MAXCHECK             10
UNBALANCED           CONTINUE 10
DEMAND MULTIPLIER    0.45
PRESSURE             METERS              
EMITTER EXPONENT     0.5
QUALITY              NONE                
DIFFUSIVITY          1
TOLERANCE            0.01

[COORDINATES]
;Node      X-Coord    Y-Coord   
179001             60.740000000        -12.580000000
179                53.440000000         12.580000000
177                15.300000000         27.600000000
174                62.440000000         40.960000000
173                45.590000000         38.830000000
171001             45.860000000         62.360000000
171                56.680000000         67.230000000
172                66.960000000         67.230000000
170                44.510000000         81.570000000
165                44.140000000         96.370000000
166                59.390000000         97.540000000
168                74.000000000        101.600000000
169                87.260000000        105.650000000
163                43.970000000        109.170000000
164                30.170000000        108.360000000
162                43.850000000        121.530000000
161                43.970000000        133.250000000
106                47.660000000        155.220000000
124                85.800000000        152.040000000
125               101.600000000        150.030000000
125001            116.410000000        147.580000000
126               133.060000000        148.860000000
127                92.790000000        120.900000000
128               121.890000000        102.680000000
129               134.330000000         99.970000000
130               148.130000000        105.380000000
132               122.030000000         70.680000000
131001            107.550000000         53.710000000
131               122.430000000         57.220000000
133               135.150000000         61.550000000
134               151.920000000         64.530000000
135                95.640000000          0.140000000
136               110.800000000          0.140000000
137               141.910000000         17.990000000
138               148.400000000          1.490000000
139               107.820000000         -9.330000000
141                92.180000000        -42.840000000
143               118.420000000        -38.510000000
144               128.700000000        -26.060000000
145               141.420000000        -32.290000000
142               132.760000000        -49.330000000
140001             79.730000000        -42.840000000
151                50.510000000        -43.110000000
152                39.150000000        -43.650000000
107                85.170000000        169.210000000
108               106.280000000        188.310000000
109               118.970000000        187.930000000
110               133.060000000        185.370000000
111               143.950000000        194.330000000
113               147.150000000        166.790000000
114               158.040000000        158.470000000
112               141.770000000        176.880000000
115               134.980000000        241.260000000
116               143.670000000        241.260000000
117               155.780000000        236.760000000
118               174.890000000        215.740000000
119               169.160000000        231.660000000
105                27.960000000        157.770000000
102                10.160000000        153.950000000
103                12.770000000        169.700000000
104                24.890000000        174.460000000
100                -8.120000000        150.030000000
101               -12.340000000        182.250000000
96                -29.890000000        150.770000000
97                -27.980000000        120.900000000
98                -21.100000000        106.470000000
99                -13.530000000         91.310000000
93                -49.590000000        150.140000000
94                -59.520000000        178.350000000
95                -50.430000000        201.730000000
92                -64.850000000        145.050000000
160               -68.060000000        115.550000000
159001            -57.810000000         85.450000000
159               -47.940000000         59.310000000
156               -36.880000000         38.900000000
157                -8.930000000         52.900000000
158                 6.220000000         61.010000000
155               -28.410000000         18.800000000
154                -7.850000000         21.510000000
153                -4.600000000        -27.730000000
55                 10.160000000        -74.250000000
59                 43.210000000       -148.620000000
60                 13.970000000       -146.720000000
61                -21.920000000       -117.560000000
62                -22.260000000       -147.350000000
147               112.280000000       -106.200000000
150               136.020000000       -160.700000000
148               120.760000000       -129.550000000
149               155.570000000       -139.750000000
63                 77.180000000       -215.620000000
64                 35.980000000       -215.770000000
65                 12.720000000       -211.990000000
66                -14.880000000       -196.830000000
67                107.950000000       -225.510000000
68                122.020000000       -238.500000000
69                128.520000000       -260.690000000
70                139.880000000       -234.710000000
71                166.940000000       -226.600000000
72                191.730000000       -242.440000000
56                -16.500000000        -86.990000000
57                -38.150000000        -88.070000000
58                -61.420000000        -86.990000000
53                -47.350000000        -50.190000000
54                -82.520000000        -49.110000000
52                -19.370000000        -30.740000000
46001             -41.020000000         13.420000000
50                -54.380000000         -9.600000000
51                -91.720000000        -17.720000000
47                -67.910000000         22.860000000
48                -83.600000000         21.780000000
49               -113.910000000         17.450000000
42                -91.390000000         75.590000000
45               -118.150000000         68.580000000
46               -137.720000000         61.280000000
41                -74.780000000         84.420000000
35                -96.430000000        138.100000000
36               -116.880000000        128.650000000
39               -120.130000000        117.020000000
40               -122.840000000        103.490000000
37               -147.460000000        125.410000000
91                -78.200000000        142.510000000
90               -104.900000000        229.600000000
89                -69.300000000        241.040000000
31               -113.160000000        180.650000000
32               -139.220000000        171.110000000
34               -172.280000000        178.740000000
33               -166.450000000        158.010000000
28001            -126.510000000        224.510000000
28               -122.060000000        206.710000000
29               -148.120000000        202.900000000
30               -175.460000000        213.700000000
27               -140.040000000        248.480000000
26               -167.750000000        261.470000000
23               -167.750000000        272.290000000
22               -244.050000000        268.090000000
87                -50.130000000        262.870000000
86                -28.990000000        277.600000000
83                -25.150000000        295.540000000
77                 -8.490000000        308.350000000
81                  3.040000000        287.210000000
78                  9.440000000        272.480000000
79                 12.000000000        248.780000000
80                  5.600000000        230.840000000
82                 81.990000000        344.650000000
84                -50.000000000        294.810000000
85                -73.810000000        291.340000000
121               134.010000000        292.450000000
122               131.110000000        311.770000000
123               119.520000000        330.130000000
120               143.650000000        267.100000000
75                  1.890000000        373.260000000
76                 10.790000000        309.690000000
73                -19.080000000        363.080000000
74                -41.330000000        351.640000000
227                20.030000000        411.270000000
215001             37.410000000        413.200000000
215                76.690000000        415.310000000
219                49.660000000        382.170000000
220                38.380000000        382.290000000
221                38.380000000        365.870000000
222                27.750000000        345.580000000
223                27.750000000        330.130000000
223001             50.940000000        350.410000000
224                53.840000000        336.890000000
225                53.220000000        322.520000000
226                42.590000000        302.230000000
214                89.510000000        415.310000000
216                89.510000000        401.220000000
217                89.510000000        387.770000000
218               103.600000000        396.100000000
201                86.940000000        439.650000000
203                90.380000000        428.280000000
204               111.900000000        424.680000000
205               125.110000000        424.680000000
211               127.710000000        411.470000000
212               128.360000000        393.720000000
206               143.470000000        424.350000000
207               161.240000000        424.920000000
208               186.870000000        433.720000000
209               188.910000000        416.730000000
210               188.910000000        400.420000000
213               202.500000000        456.820000000
200001             86.940000000        451.820000000
199                86.940000000        465.910000000
196               100.570000000        465.660000000
197               116.200000000        465.660000000
198               131.150000000        457.500000000
233               152.900000000        484.000000000
232               173.960000000        484.000000000
231               174.640000000        497.590000000
230               188.230000000        497.590000000
234               202.760000000        498.480000000
194               101.250000000        509.830000000
195               109.360000000        500.500000000
192                86.940000000        510.750000000
193                72.210000000        510.750000000
234001            202.760000000        532.170000000
235               202.760000000        558.230000000
236               179.460000000        540.260000000
237               168.290000000        540.210000000
238               168.290000000        531.890000000
240               168.440000000        515.640000000
239               130.300000000        532.810000000
190001             86.980000000        553.990000000
187               116.410000000        579.930000000
188               116.410000000        547.260000000
189               130.500000000        547.260000000
186               131.140000000        579.930000000
185               148.430000000        579.930000000
235001            202.880000000        578.000000000
241               195.830000000        594.020000000
242               173.410000000        594.020000000
243               195.830000000        614.510000000
244               195.140000000        636.420000000
245               195.830000000        659.350000000
183               101.250000000        682.420000000
184                94.460000000        664.080000000
182               116.410000000        683.690000000
249               127.760000000        705.070000000
248               164.450000000        704.830000000
247               195.140000000        705.070000000
246               195.830000000        682.410000000
181               114.410000000        753.380000000
266                47.870000000        523.940000000
180004             72.940000000        601.300000000
190                89.510000000        579.930000000
191                78.620000000        579.930000000
180003             74.240000000        703.030000000
180002             90.260000000        735.930000000
180001            128.390000000        752.750000000
180               147.150000000        757.990000000
287                 6.970000000        430.280000000
286                17.880000000        439.630000000
285                29.310000000        438.070000000
284                37.570000000        442.710000000
200                74.770000000        465.910000000
274                -2.560000000        492.760000000
275                23.420000000        493.760000000
276                32.220000000        500.190000000
265                30.520000000        523.810000000
268                -5.840000000        523.810000000
269               -18.360000000        526.580000000
271               -43.240000000        531.540000000
270               -36.580000000        547.190000000
318              -167.320000000        316.880000000
317              -156.490000000        324.680000000
316              -156.060000000        347.620000000
315              -138.740000000        347.190000000
313              -122.290000000        354.110000000
314              -122.730000000        326.410000000
312              -105.840000000        359.310000000
310               -88.530000000        365.800000000
311               -70.170000000        361.410000000
309               -77.290000000        382.770000000
297               -72.510000000        397.400000000
298               -78.570000000        414.290000000
299              -100.220000000        426.840000000
296               -58.230000000        393.940000000
294               -41.770000000        390.480000000
293               -22.900000000        389.780000000
291               -15.270000000        411.400000000
295               -45.240000000        402.160000000
288                -8.910000000        434.910000000
289               -27.060000000        435.500000000
290               -38.310000000        435.070000000
282                 2.530000000        455.260000000
277                -5.730000000        475.600000000
278               -24.030000000        493.510000000
279               -45.670000000        493.940000000
280               -64.290000000        487.450000000
281               -64.720000000        475.320000000
272               -61.040000000        555.690000000
273               -49.590000000        516.910000000
264                 4.320000000        570.960000000
257001              7.520000000        582.490000000
258001             12.060000000        600.820000000
259001             38.900000000        587.610000000
260001             -0.010000000        550.610000000
261               -26.990000000        595.820000000
262               -41.320000000        571.930000000
263               -60.440000000        586.270000000
255                41.940000000        718.420000000
258                43.850000000        677.100000000
259                43.210000000        642.780000000
260                41.940000000        613.540000000
256                49.570000000        727.950000000
257                61.010000000        740.030000000
254                19.060000000        719.060000000
250004             45.310000000        758.630000000
421                96.430000000        775.000000000
420               100.320000000        804.220000000
419               102.920000000        822.400000000
418               107.470000000        848.380000000
416               110.710000000        868.510000000
417               130.500000000        886.730000000
415                69.810000000        855.520000000
414                64.770000000        832.940000000
413                53.890000000        805.310000000
250001             40.580000000        843.830000000
21               -272.220000000        287.710000000
319              -159.450000000        377.380000000
320              -150.050000000        387.130000000
20               -252.740000000        311.090000000
19               -325.470000000        324.950000000
18               -368.060000000        362.450000000
302              -100.730000000        403.140000000
303              -115.460000000        410.190000000
305              -140.260000000        416.230000000
306              -125.070000000        435.810000000
307              -134.680000000        440.930000000
321              -143.000000000        394.180000000
11               -383.950000000        352.910000000
322              -184.740000000        399.030000000
323              -210.070000000        398.380000000
301              -162.220000000        471.040000000
300              -184.640000000        479.360000000
324              -166.560000000        429.190000000
368              -185.280000000        440.930000000
367              -177.590000000        449.260000000
369              -169.900000000        457.590000000
325              -127.150000000        567.770000000
365              -115.070000000        532.810000000
362              -151.940000000        530.900000000
360001           -199.370000000        531.890000000
360              -214.100000000        534.450000000
359              -226.910000000        537.010000000
361              -179.980000000        530.490000000
366              -163.380000000        501.020000000
364              -182.710000000        507.550000000
363              -208.980000000        512.670000000
326              -149.390000000        556.330000000
327              -148.770000000        567.760000000
328              -164.780000000        568.400000000
329              -182.710000000        569.040000000
330              -132.750000000        592.100000000
334              -143.000000000        617.720000000
336              -125.240000000        644.050000000
331               -91.550000000        525.810000000
332               -80.110000000        528.990000000
333              -105.530000000        584.930000000
337              -144.310000000        701.890000000
338              -110.710000000        705.840000000
340               -65.260000000        709.090000000
341               -39.610000000        711.040000000
250                -4.220000000        716.230000000
251                -4.460000000        700.620000000
253               -10.180000000        656.760000000
252                -7.000000000        680.920000000
342               -38.150000000        695.540000000
343               -38.150000000        677.100000000
344               -43.510000000        657.470000000
339              -104.260000000        671.380000000
250003             -5.930000000        744.540000000
250002             -6.570000000        770.160000000
412               -29.560000000        815.860000000
411               -60.390000000        802.270000000
410              -101.300000000        784.090000000
409              -127.920000000        769.160000000
408              -168.180000000        748.380000000
407001           -235.710000000        725.650000000
407              -277.270000000        684.090000000
345              -172.280000000        698.710000000
346              -184.350000000        677.740000000
347              -193.890000000        652.310000000
348              -205.330000000        626.880000000
349              -209.150000000        602.730000000
350              -225.670000000        691.720000000
350001           -242.210000000        640.580000000
351              -258.730000000        645.320000000
356              -271.570000000        582.520000000
352              -252.090000000        585.110000000
335              -167.340000000        608.110000000
406              -339.610000000        693.180000000
405              -387.660000000        674.350000000
404              -414.750000000        646.060000000
353              -252.090000000        563.030000000
354              -254.690000000        550.700000000
355              -257.930000000        537.060000000
357              -281.310000000        563.680000000
358              -300.790000000        564.980000000
370              -200.650000000        447.340000000
371              -212.800000000        461.090000000
372              -240.730000000        465.630000000
373              -229.360000000        482.190000000
374              -220.270000000        480.570000000
378              -253.940000000        445.320000000
379              -227.660000000        433.370000000
380              -239.610000000        415.460000000
381              -244.380000000        393.960000000
382              -230.050000000        384.400000000
376              -278.710000000        474.720000000
377              -283.800000000        450.100000000
383              -375.780000000        463.240000000
384              -370.270000000        489.660000000
396001           -417.010000000        569.040000000
397              -392.850000000        553.780000000
398              -373.150000000        541.070000000
400              -441.690000000        610.430000000
401              -466.940000000        619.130000000
402              -481.750000000        605.200000000
403              -471.300000000        588.660000000
10               -397.940000000        335.750000000
9                -561.830000000        418.230000000
8                -621.050000000        462.250000000
2                -690.400000000        518.230000000
1                -725.470000000        529.920000000
3                -657.280000000        539.010000000
385              -469.200000000        504.690000000
17               -422.090000000        436.190000000
16               -441.160000000        454.620000000
15               -453.390000000        435.110000000
13               -489.750000000        461.740000000
12               -519.620000000        486.410000000
14               -545.600000000        497.450000000
6                -576.760000000        497.450000000
5                -612.480000000        472.130000000
601              -422.330000000        496.300000000
387              -499.490000000        523.420000000
388              -518.970000000        537.060000000
389              -541.700000000        554.590000000
390              -562.480000000        557.190000000
391              -570.270000000        566.930000000
392              -581.960000000        577.970000000
393              -593.650000000        589.010000000
394              -615.730000000        605.240000000
395              -638.450000000        611.740000000
396              -625.470000000        579.920000000
4                -659.830000000        495.300000000
7                -632.500000000        450.810000000
228               120.130000000        361.180000000
229                -0.010000000        387.880000000
256001             15.210000000        629.240000000
399              -426.590000000        596.350000000
24               -149.910000000        274.950000000
24001            -133.000000000        276.980000000
25               -114.730000000        289.150000000
45001             -49.990000000         31.630000000
71001             167.380000000       -237.030000000
127001            102.330000000        101.190000000
202001             47.870000000        439.650000000
301001           -144.940000000        492.760000000
304              -129.090000000        412.160000000
422               166.530000000        836.650000000
38                 52.150000000        481.540000000
43                192.620000000        913.460000000
44                 30.170000000        822.680000000
88               -567.070000000        714.700000000

[VERTICES]
;Link      X-Coord    Y-Coord   

[LABELS]

[BACKDROP]
DIMENSIONS    -771.89    -319.40    249.30    972.17
UNITS    NONE
OFFSET    0.00    0.00

[END]
